webassembly/ejemplos_dzn/folder11_json_25.dzn
TERM = { '.', 'in_1', 'local_0', 'local_1', 'in_2', 'in_4', 'in_3', 's(1)', 's(0)', 'in_5', 'in_0'};
null = '.';
s = 11;
n = 12;
ndeps = 5;
max_registers_sz = 5;
NR = 2;
registers = [|'local_0', 'in_5', |'local_1', 'in_1'|];
dependencies = [|'i32.store_1', 'i32.load8_u_3', |'i32.store_1', 'i32.load8_s_5', |'i32.load8_u_3', 'i32.store16_6', |'i32.load8_s_5', 'i32.store16_6', |'i32.store16_6', 'i32.store_7'|];
GET_ENUM = { GET1, GET2, GET3, GET4, GET5, GET6, GET7};
SET_ENUM = { SET1, SET2, SET3, SET4, SET5, SET6, SET7};
TEE_ENUM = { TEE1, TEE2, TEE3, TEE4, TEE5, TEE6, TEE7};
N = 5;
OP = { 'i32.store_1', 'i32.load8_u_3', 'i32.load8_s_5', 'i32.store16_6', 'i32.store_7' };
in_ops = [2, 1, 1, 2, 2 ];
out_ops = [0, 1, 1, 0, 0 ];
in1 = ['local_1', 'in_1', 's(0)', 's(1)', 'in_3' ];
in2 = ['in_0', '.', '.', 'in_2', 'in_4' ];
in3 = ['.', '.', '.', '.', '.' ];
out1 = ['.', 's(0)', 's(1)', '.', '.' ];
out2 = ['.', '.', '.', '.', '.' ];
out3 = ['.', '.', '.', '.', '.' ];
comm = [false, false, false, false, false ];
gas = [1, 1, 1, 1, 1 ];
sz = [1, 1, 1, 1, 1 ];
stor = [true, false, false, true, true ];
lb = [ 1, 1, 1, 1, 1 ];
ub = [ 11, 11, 11, 11, 11 ];
startstack = [ 'in_0', 'in_1', 'in_2', 'in_3', 'in_4', 'in_5', null, null, null, null, null, null ];
endstack = [ 'in_5', null, null, null, null, null, null, null, null, null, null, null ];
